Problem:    
Rows:       248
Columns:    89 (72 integer, 72 binary)
Non-zeros:  820
Status:     INTEGER OPTIMAL
Objective:  value = 23.835897 (MINimum)

   No.   Row name        Activity     Lower bound   Upper bound
------ ------------    ------------- ------------- -------------
     1 r.5                   523.836             0               
     2 r.6                  -482.148       -494.28               
     3 r.7                   23.8359             0               
     4 r.8                  -463.796      -487.632               
     5 r.9                   523.836             0               
     6 r.10                 -490.868      -491.457               
     7 r.11                  23.8359             0               
     8 r.12                  9.98291      -490.546               
     9 r.13                  23.8359             0               
    10 r.14                 -468.715      -492.551               
    11 r.15                  523.836             0               
    12 r.16                 -479.476      -494.346               
    13 r.17                  23.8359             0               
    14 r.18                 -472.271      -496.107               
    15 r.19                  523.836             0               
    16 r.20                  -488.13      -495.113               
    17 r.21                  23.8359             0               
    18 r.22                 0.589417      -496.825               
    19 r.23                  523.836             0               
    20 r.24                  -485.13      -497.597               
    21 r.25                  523.836             0               
    22 r.26                 -476.164      -497.016               
    23 r.27                  23.8359             0               
    24 r.28                 -2.47145      -499.788               
    25 r.29                  23.8359             0               
    26 r.30                  12.1319      -494.161               
    27 r.31                  523.836             0               
    28 r.32                 -476.164      -499.688               
    29 r.33                  23.8359             0               
    30 r.34                 0.589417      -499.061               
    31 r.35                  523.836             0               
    32 r.36                 -499.411      -499.411               
    33 r.37                        1             1             = 
    34 r.38                        1             1             = 
    35 r.39                        1             1             = 
    36 r.40                        1             1             = 
    37 r.41                        1             1             = 
    38 r.42                        1             1             = 
    39 r.43                        1             1             = 
    40 r.44                        1             1             = 
    41 r.45                   491.28       8.54251               
    42 r.46                  -494.28       -494.28               
    43 r.47                  473.779       9.45436               
    44 r.48                 -470.779      -487.632               
    45 r.49                  13.4334        7.4493               
    46 r.50                 -13.4334       -494.28               
    47 r.51                  484.321       5.65406               
    48 r.52                 -484.321      -487.632               
    49 r.53                  9.87744       3.89339               
    50 r.54                 -9.87744       -494.28               
    51 r.55                  475.667       4.88741               
    52 r.56                 -475.667      -487.632               
    53 r.57                  482.738         3.175               
    54 r.58                 -482.738       -494.28               
    55 r.59                  478.667       2.40293               
    56 r.60                 -478.667      -487.632               
    57 r.61                 -494.016      -494.016               
    58 r.62                 -20.3233      -496.788               
    59 r.63                 -12.3677      -494.016               
    60 r.64                  461.325      -496.788               
    61 r.65                   494.28       5.83913               
    62 r.66                  -494.28       -494.28               
    63 r.67                  487.632       0.31152               
    64 r.68                 -487.632      -487.632               
    65 r.69                 -482.738       -491.28               
    66 r.70                 -464.386      -484.632               
    67 r.71                 -482.738       -491.28               
    68 r.72                 -464.386      -484.632               
    69 r.73                  5.71992       5.71992               
    70 r.74                 -5.71992      -491.457               
    71 r.75                  29.2207       12.3677               
    72 r.76                 -29.2207      -490.546               
    73 r.77                  19.1533        7.4493               
    74 r.78                 -19.1533      -491.457               
    75 r.79                  13.5415       5.65406               
    76 r.80                 -13.5415      -490.546               
    77 r.81                  15.5974       3.89339               
    78 r.82                 -15.5974      -491.457               
    79 r.83                  4.88741       4.88741               
    80 r.84                 -4.88741      -490.546               
    81 r.85                  488.457         3.175               
    82 r.86                 -488.457      -491.457               
    83 r.87                  7.88741       2.40293               
    84 r.88                 -7.88741      -490.546               
    85 r.89                   11.704       2.98405               
    86 r.90                  -11.704      -491.457               
    87 r.91                  490.546      0.211538               
    88 r.92                 -490.546      -490.546               
    89 r.93                        0      -491.161               
    90 r.94                 -488.296      -496.688               
    91 r.95                  5.14901      -491.161               
    92 r.96                 -483.147      -496.688               
    93 r.97                 -488.457      -488.457               
    94 r.98                  6.39349      -487.546               
    95 r.99                 -488.457      -488.457               
    96 r.100                 6.39349      -487.546               
    97 r.101                 486.567       5.71992               
    98 r.102                -486.567      -492.551               
    99 r.103                 15.6792       12.3677               
   100 r.104                -15.6792      -494.346               
   101 r.105                 477.847       8.54251               
   102 r.106                -480.847      -492.551               
   103 r.107                 489.459       9.45436               
   104 r.108                -486.459      -494.346               
   105 r.109                 3.55591      -489.551               
   106 r.110                -7.20491      -491.346               
   107 r.111                -480.585      -489.551               
   108 r.112                -491.346      -491.346               
   109 r.113                 469.304         3.175               
   110 r.114                -469.304      -492.551               
   111 r.115                 494.346       2.40293               
   112 r.116                -494.346      -494.346               
   113 r.117                 492.551       2.98405               
   114 r.118                -492.551      -492.551               
   115 r.119                 477.004      0.211538               
   116 r.120                -477.004      -494.346               
   117 r.121                 480.847      -491.161               
   118 r.122                 -7.4493      -496.688               
   119 r.123                -8.39245      -491.161               
   120 r.124                -496.688      -496.688               
   121 r.125                -469.304      -489.551               
   122 r.126                -480.065      -491.346               
   123 r.127                -469.304      -489.551               
   124 r.128                -480.065      -491.346               
   125 r.129                 490.123       5.71992               
   126 r.130                -490.123      -496.107               
   127 r.131                 24.3333       12.3677               
   128 r.132                -24.3333      -495.113               
   129 r.133                 481.403       8.54251               
   130 r.134                -484.403      -496.107               
   131 r.135                 498.113       9.45436               
   132 r.136                -495.113      -495.113               
   133 r.137                 3.55591      -489.551               
   134 r.138                -7.20491      -491.346               
   135 r.139                -480.585      -489.551               
   136 r.140                -491.346      -491.346               
   137 r.141                  472.86         3.175               
   138 r.142                 -472.86      -496.107               
   139 r.143                       3       2.40293               
   140 r.144                      -3      -495.113               
   141 r.145                 496.107       2.98405               
   142 r.146                -496.107      -496.107               
   143 r.147                 485.658      0.211538               
   144 r.148                -485.658      -495.113               
   145 r.149                 484.403      -491.161               
   146 r.150                -3.89339      -496.688               
   147 r.151                0.261606      -491.161               
   148 r.152                -488.034      -496.688               
   149 r.153                 -472.86      -490.107               
   150 r.154                -488.719      -489.113               
   151 r.155                 -472.86      -490.107               
   152 r.156                -488.719      -489.113               
   153 r.157                 17.2624       5.71992               
   154 r.158                -17.2624      -496.825               
   155 r.159                 21.3333       12.3677               
   156 r.160                -21.3333      -497.597               
   157 r.161                 8.54251       8.54251               
   158 r.162                -11.5425      -496.825               
   159 r.163                 495.113       9.45436               
   160 r.164                -492.113      -497.597               
   161 r.165                 30.6958        7.4493               
   162 r.166                -30.6958      -496.825               
   163 r.167                 5.65406       5.65406               
   164 r.168                -5.65406      -497.597               
   165 r.169                 27.1399       3.89339               
   166 r.170                -27.1399      -496.825               
   167 r.171                     497       4.88741               
   168 r.172                    -497      -497.597               
   169 r.173                -476.754      -494.016               
   170 r.174                -3.06086      -496.788               
   171 r.175                -491.034      -494.016               
   172 r.176                -17.3418      -496.788               
   173 r.177                 11.5425      -491.161               
   174 r.178                -476.754      -496.688               
   175 r.179                -2.73839      -491.161               
   176 r.180                -491.034      -496.688               
   177 r.181                       0      -490.825               
   178 r.182                -485.719      -491.597               
   179 r.183                       0      -490.825               
   180 r.184                -485.719      -491.597               
   181 r.185                -494.016      -494.016               
   182 r.186                -20.3233      -496.788               
   183 r.187                -12.3677      -494.016               
   184 r.188                 461.325      -496.788               
   185 r.189                 485.296       8.54251               
   186 r.190                -488.296      -497.016               
   187 r.191                 12.4544       9.45436               
   188 r.192                -9.45436      -499.788               
   189 r.193                  7.4493        7.4493               
   190 r.194                 -7.4493      -497.016               
   191 r.195                 22.9958       5.65406               
   192 r.196                -22.9958      -499.788               
   193 r.197                 3.89339       3.89339               
   194 r.198                -3.89339      -497.016               
   195 r.199                 14.3418       4.88741               
   196 r.200                -14.3418      -499.788               
   197 r.201                -476.754      -494.016               
   198 r.202                -3.06086      -496.788               
   199 r.203                -491.034      -494.016               
   200 r.204                -17.3418      -496.788               
   201 r.205                 488.296       5.83913               
   202 r.206                -488.296      -497.016               
   203 r.207                 26.3073       0.31152               
   204 r.208                -26.3073      -499.788               
   205 r.209                 5.71992       5.71992               
   206 r.210                -5.71992      -494.161               
   207 r.211                 12.3677       12.3677               
   208 r.212                -12.3677      -499.688               
   209 r.213                       0      -491.161               
   210 r.214                -488.296      -496.688               
   211 r.215                 5.14901      -491.161               
   212 r.216                -483.147      -496.688               
   213 r.217                 480.847      -491.161               
   214 r.218                 -7.4493      -496.688               
   215 r.219                -8.39245      -491.161               
   216 r.220                -496.688      -496.688               
   217 r.221                 484.403      -491.161               
   218 r.222                -3.89339      -496.688               
   219 r.223                0.261606      -491.161               
   220 r.224                -488.034      -496.688               
   221 r.225                 11.5425      -491.161               
   222 r.226                -476.754      -496.688               
   223 r.227                -2.73839      -491.161               
   224 r.228                -491.034      -496.688               
   225 r.229                  11.704       2.98405               
   226 r.230                 -11.704      -494.161               
   227 r.231                 473.693      0.211538               
   228 r.232                -473.693      -499.688               
   229 r.233                -482.738       -491.28               
   230 r.234                -464.386      -484.632               
   231 r.235                -482.738       -491.28               
   232 r.236                -464.386      -484.632               
   233 r.237                -488.457      -488.457               
   234 r.238                 6.39349      -487.546               
   235 r.239                -488.457      -488.457               
   236 r.240                 6.39349      -487.546               
   237 r.241                -469.304      -489.551               
   238 r.242                -480.065      -491.346               
   239 r.243                -469.304      -489.551               
   240 r.244                -480.065      -491.346               
   241 r.245                 -472.86      -490.107               
   242 r.246                -488.719      -489.113               
   243 r.247                 -472.86      -490.107               
   244 r.248                -488.719      -489.113               
   245 r.249                       0      -490.825               
   246 r.250                -485.719      -491.597               
   247 r.251                       0      -490.825               
   248 r.252                -485.719      -491.597               

   No. Column name       Activity     Lower bound   Upper bound
------ ------------    ------------- ------------- -------------
     1 tt                    23.8359             0               
     2 s_1_1        *              1             0             1 
     3 t_1_1                 5.98405             0               
     4 s_1_6        *              1             0             1 
     5 s_2_1        *              0             0             1 
     6 t_2_1                 487.632             0               
     7 s_2_6        *              0             0             1 
     8 s_1_2        *              1             0             1 
     9 t_1_2                  11.704             0               
    10 s_1_7        *              0             0             1 
    11 s_2_2        *              0             0             1 
    12 t_2_2                  16.853             0               
    13 s_2_7        *              1             0             1 
    14 s_1_3        *              0             0             1 
    15 t_1_3                 492.551             0               
    16 s_2_3        *              1             0             1 
    17 t_2_3                 3.31152             0               
    18 s_1_4        *              0             0             1 
    19 t_1_4                 496.107             0               
    20 s_2_4        *              1             0             1 
    21 t_2_4                 11.9656             0               
    22 s_1_5        *              0             0             1 
    23 t_1_5                 23.2465             0               
    24 s_2_5        *              1             0             1 
    25 t_2_5                 8.96558             0               
    26 t_1_6                       0             0               
    27 t_2_6                 26.3073             0               
    28 t_1_7                  11.704             0               
    29 t_2_7                       0             0               
    30 s_1_8        *              0             0             1 
    31 t_1_8                 23.2465             0               
    32 s_2_8        *              1             0             1 
    33 t_2_8                 23.2465             0               
    34 u_1_1_2      *              1             0             1 
    35 u_2_1_2      *              0             0             1 
    36 u_1_1_3      *              1             0             1 
    37 u_2_1_3      *              0             0             1 
    38 u_1_1_4      *              1             0             1 
    39 u_2_1_4      *              0             0             1 
    40 u_1_1_5      *              1             0             1 
    41 u_2_1_5      *              0             0             1 
    42 u_1_1_7      *              1             0             1 
    43 u_2_1_7      *              0             0             1 
    44 u_1_2_1      *              0             0             1 
    45 u_2_2_1      *              1             0             1 
    46 u_1_2_3      *              1             0             1 
    47 u_2_2_3      *              0             0             1 
    48 u_1_2_4      *              1             0             1 
    49 u_2_2_4      *              0             0             1 
    50 u_1_2_5      *              1             0             1 
    51 u_2_2_5      *              0             0             1 
    52 u_1_2_6      *              0             0             1 
    53 u_2_2_6      *              1             0             1 
    54 u_1_3_1      *              0             0             1 
    55 u_2_3_1      *              1             0             1 
    56 u_1_3_2      *              0             0             1 
    57 u_2_3_2      *              1             0             1 
    58 u_1_3_5      *              0             0             1 
    59 u_2_3_5      *              1             0             1 
    60 u_1_3_6      *              0             0             1 
    61 u_2_3_6      *              1             0             1 
    62 u_1_4_1      *              0             0             1 
    63 u_2_4_1      *              1             0             1 
    64 u_1_4_2      *              0             0             1 
    65 u_2_4_2      *              1             0             1 
    66 u_1_4_5      *              0             0             1 
    67 u_2_4_5      *              0             0             1 
    68 u_1_4_6      *              0             0             1 
    69 u_2_4_6      *              1             0             1 
    70 u_1_5_1      *              0             0             1 
    71 u_2_5_1      *              1             0             1 
    72 u_1_5_2      *              0             0             1 
    73 u_2_5_2      *              1             0             1 
    74 u_1_5_3      *              1             0             1 
    75 u_2_5_3      *              0             0             1 
    76 u_1_5_4      *              1             0             1 
    77 u_2_5_4      *              1             0             1 
    78 u_1_6_2      *              1             0             1 
    79 u_2_6_2      *              0             0             1 
    80 u_1_6_3      *              1             0             1 
    81 u_2_6_3      *              0             0             1 
    82 u_1_6_4      *              1             0             1 
    83 u_2_6_4      *              0             0             1 
    84 u_1_6_7      *              1             0             1 
    85 u_2_6_7      *              0             0             1 
    86 u_1_7_1      *              0             0             1 
    87 u_2_7_1      *              1             0             1 
    88 u_1_7_6      *              0             0             1 
    89 u_2_7_6      *              1             0             1 

Integer feasibility conditions:

KKT.PE: max.abs.err = 0.00e+00 on row 0
        max.rel.err = 0.00e+00 on row 0
        High quality

KKT.PB: max.abs.err = 1.95e-14 on row 207
        max.rel.err = 1.46e-15 on row 207
        High quality

End of output
